c colouring generated by benchmark framework
p edge 450 16750
v 1 3
v 2 15
v 3 4
v 4 8
v 5 7
v 6 2
v 7 17
v 8 15
v 9 21
v 10 10
v 11 16
v 12 15
v 13 5
v 14 3
v 15 14
v 16 0
v 17 13
v 18 23
v 19 20
v 20 23
v 21 3
v 22 7
v 23 12
v 24 10
v 25 14
v 26 22
v 27 15
v 28 9
v 29 14
v 30 14
v 31 20
v 32 6
v 33 1
v 34 1
v 35 13
v 36 10
v 37 17
v 38 23
v 39 4
v 40 7
v 41 4
v 42 4
v 43 17
v 44 9
v 45 0
v 46 3
v 47 4
v 48 5
v 49 2
v 50 15
v 51 7
v 52 8
v 53 17
v 54 13
v 55 4
v 56 10
v 57 24
v 58 13
v 59 18
v 60 4
v 61 19
v 62 17
v 63 24
v 64 9
v 65 17
v 66 12
v 67 21
v 68 8
v 69 8
v 70 15
v 71 16
v 72 12
v 73 3
v 74 9
v 75 14
v 76 3
v 77 13
v 78 5
v 79 2
v 80 0
v 81 14
v 82 23
v 83 7
v 84 21
v 85 21
v 86 1
v 87 18
v 88 7
v 89 23
v 90 24
v 91 12
v 92 2
v 93 23
v 94 21
v 95 7
v 96 15
v 97 16
v 98 17
v 99 22
v 100 0
v 101 1
v 102 11
v 103 14
v 104 16
v 105 6
v 106 0
v 107 10
v 108 14
v 109 13
v 110 17
v 111 16
v 112 21
v 113 24
v 114 2
v 115 11
v 116 22
v 117 9
v 118 20
v 119 15
v 120 21
v 121 19
v 122 4
v 123 21
v 124 9
v 125 12
v 126 2
v 127 3
v 128 8
v 129 24
v 130 0
v 131 4
v 132 18
v 133 10
v 134 5
v 135 17
v 136 7
v 137 22
v 138 17
v 139 9
v 140 3
v 141 2
v 142 14
v 143 5
v 144 3
v 145 17
v 146 16
v 147 11
v 148 24
v 149 6
v 150 2
v 151 22
v 152 13
v 153 10
v 154 9
v 155 21
v 156 8
v 157 8
v 158 0
v 159 4
v 160 20
v 161 16
v 162 11
v 163 21
v 164 19
v 165 10
v 166 18
v 167 3
v 168 12
v 169 0
v 170 0
v 171 14
v 172 23
v 173 18
v 174 11
v 175 9
v 176 23
v 177 18
v 178 14
v 179 19
v 180 2
v 181 12
v 182 18
v 183 5
v 184 13
v 185 6
v 186 24
v 187 23
v 188 1
v 189 21
v 190 6
v 191 6
v 192 3
v 193 23
v 194 6
v 195 11
v 196 15
v 197 13
v 198 21
v 199 20
v 200 9
v 201 0
v 202 16
v 203 19
v 204 20
v 205 17
v 206 4
v 207 3
v 208 7
v 209 8
v 210 1
v 211 9
v 212 6
v 213 3
v 214 13
v 215 15
v 216 2
v 217 2
v 218 14
v 219 4
v 220 10
v 221 0
v 222 21
v 223 19
v 224 15
v 225 7
v 226 1
v 227 1
v 228 21
v 229 23
v 230 1
v 231 10
v 232 15
v 233 17
v 234 18
v 235 24
v 236 16
v 237 1
v 238 23
v 239 1
v 240 22
v 241 11
v 242 18
v 243 15
v 244 14
v 245 11
v 246 2
v 247 22
v 248 8
v 249 3
v 250 22
v 251 12
v 252 6
v 253 1
v 254 6
v 255 11
v 256 2
v 257 13
v 258 5
v 259 13
v 260 12
v 261 20
v 262 13
v 263 1
v 264 7
v 265 21
v 266 11
v 267 2
v 268 24
v 269 11
v 270 10
v 271 20
v 272 17
v 273 21
v 274 3
v 275 12
v 276 11
v 277 5
v 278 8
v 279 16
v 280 19
v 281 16
v 282 12
v 283 17
v 284 9
v 285 20
v 286 1
v 287 5
v 288 15
v 289 2
v 290 12
v 291 22
v 292 5
v 293 5
v 294 16
v 295 7
v 296 15
v 297 12
v 298 10
v 299 5
v 300 18
v 301 16
v 302 8
v 303 22
v 304 6
v 305 24
v 306 22
v 307 4
v 308 15
v 309 4
v 310 0
v 311 16
v 312 18
v 313 9
v 314 6
v 315 0
v 316 7
v 317 13
v 318 7
v 319 6
v 320 16
v 321 20
v 322 5
v 323 0
v 324 3
v 325 24
v 326 1
v 327 3
v 328 21
v 329 1
v 330 3
v 331 7
v 332 1
v 333 19
v 334 9
v 335 12
v 336 23
v 337 22
v 338 3
v 339 0
v 340 2
v 341 3
v 342 10
v 343 10
v 344 16
v 345 12
v 346 10
v 347 13
v 348 5
v 349 22
v 350 12
v 351 14
v 352 10
v 353 19
v 354 15
v 355 24
v 356 6
v 357 20
v 358 4
v 359 6
v 360 18
v 361 12
v 362 5
v 363 21
v 364 23
v 365 12
v 366 9
v 367 22
v 368 2
v 369 19
v 370 3
v 371 21
v 372 18
v 373 8
v 374 15
v 375 14
v 376 0
v 377 5
v 378 10
v 379 10
v 380 0
v 381 1
v 382 2
v 383 7
v 384 8
v 385 6
v 386 4
v 387 11
v 388 19
v 389 2
v 390 16
v 391 1
v 392 4
v 393 10
v 394 0
v 395 14
v 396 13
v 397 2
v 398 18
v 399 23
v 400 17
v 401 5
v 402 7
v 403 10
v 404 12
v 405 22
v 406 20
v 407 11
v 408 12
v 409 24
v 410 7
v 411 18
v 412 23
v 413 8
v 414 5
v 415 6
v 416 4
v 417 18
v 418 11
v 419 6
v 420 11
v 421 11
v 422 8
v 423 12
v 424 14
v 425 23
v 426 3
v 427 8
v 428 17
v 429 5
v 430 16
v 431 21
v 432 6
v 433 1
v 434 20
v 435 20
v 436 19
v 437 13
v 438 13
v 439 10
v 440 15
v 441 20
v 442 8
v 443 9
v 444 16
v 445 0
v 446 24
v 447 2
v 448 1
v 449 14
v 450 17
